NAME: ACTUAL_TOURS/amz0214
TYPE: TOUR
COMMENT: RouteID_15d28f93-566d-435a-8938-447caa743302
DIMENSION: 163
TOUR_SECTION
152
20
134
91
47
74
136
34
106
19
81
25
43
94
76
32
41
56
161
10
68
23
120
89
17
130
64
104
158
79
93
144
26
148
92
102
140
55
49
116
137
119
27
33
125
40
14
87
59
67
42
159
118
18
46
5
88
98
121
124
100
145
95
110
105
2
129
155
58
97
7
72
114
52
132
99
112
54
84
44
133
45
109
61
12
6
128
141
111
60
135
13
138
9
21
127
36
90
30
113
108
156
66
115
86
62
4
35
143
15
69
63
39
139
149
151
126
51
38
154
3
80
146
50
29
117
24
82
122
8
131
162
53
11
37
101
48
83
160
31
153
1
16
85
150
142
103
147
78
77
96
22
65
75
73
157
107
163
123
28
70
57
71
-1
EOF
